c Fichier obtenu par transformation de Tseitin
c Association noms de variables / numéro de variables :
c	ls_0_0_0 :	1
c	ls_0_0_1 :	2
c	ls_0_1_0 :	3
c	ls_0_1_1 :	4
c	ls_1_0_0 :	5
c	ls_1_0_1 :	6
c	ls_1_1_0 :	7
c	ls_1_1_1 :	8
p cnf 47 109
-9  1  2  0 
 9 -1  0 
 9 -2  0 
-10  3  4  0 
 10 -3  0 
 10 -4  0 
-11  5  6  0 
 11 -5  0 
 11 -6  0 
-12  7  8  0 
 12 -7  0 
 12 -8  0 
-13  1  3  0 
 13 -1  0 
 13 -3  0 
-14  2  4  0 
 14 -2  0 
 14 -4  0 
-15  5  7  0 
 15 -5  0 
 15 -7  0 
-16  6  8  0 
 16 -6  0 
 16 -8  0 
-17  1  5  0 
 17 -1  0 
 17 -5  0 
-18  2  6  0 
 18 -2  0 
 18 -6  0 
-19  3  7  0 
 19 -3  0 
 19 -7  0 
-20  4  8  0 
 20 -4  0 
 20 -8  0 
-21 -1  0 
 21  1  0 
-22 -2  0 
 22  2  0 
-23  21  22  0 
 23 -21  0 
 23 -22  0 
-24 -3  0 
 24  3  0 
-25 -4  0 
 25  4  0 
-26  24  25  0 
 26 -24  0 
 26 -25  0 
-27 -5  0 
 27  5  0 
-28 -6  0 
 28  6  0 
-29  27  28  0 
 29 -27  0 
 29 -28  0 
-30 -7  0 
 30  7  0 
-31 -8  0 
 31  8  0 
-32  30  31  0 
 32 -30  0 
 32 -31  0 
-33  29  32  0 
 33 -29  0 
 33 -32  0 
-34  26  33  0 
 34 -26  0 
 34 -33  0 
-35  23  34  0 
 35 -23  0 
 35 -34  0 
-36  20  35  0 
 36 -20  0 
 36 -35  0 
-37  19  36  0 
 37 -19  0 
 37 -36  0 
-38  18  37  0 
 38 -18  0 
 38 -37  0 
-39  17  38  0 
 39 -17  0 
 39 -38  0 
-40  16  39  0 
 40 -16  0 
 40 -39  0 
-41  15  40  0 
 41 -15  0 
 41 -40  0 
-42  14  41  0 
 42 -14  0 
 42 -41  0 
-43  13  42  0 
 43 -13  0 
 43 -42  0 
-44  12  43  0 
 44 -12  0 
 44 -43  0 
-45  11  44  0 
 45 -11  0 
 45 -44  0 
-46  10  45  0 
 46 -10  0 
 46 -45  0 
-47  9  46  0 
 47 -9  0 
 47 -46  0 
